47 36 49 46 48 
21 73 75 22 41 74 4 25 
63 64 90 20 66 32 70 
28 29 79 78 34 35 1 
52 88 7 18 
2 57 87 58 
33 65 71 9 50 
27 69 30 51 81 3 68 77 
59 14 44 38 86 91 100 93 
83 45 82 8 84 17 60 89 
31 62 11 19 10 
72 39 23 67 56 26 
5 99 94 6 
95 92 98 16 61 85 37 96 
42 15 43 97 13 
76 12 
53 40 54 55 24 80 
